(set-logic ALL)
(declare-fun var0 () String)
(assert (str.in_re var0 (re.++ (re.+ (re.union (str.to_re "000") (str.to_re "111"))) (re.++ (re.+ (re.union (str.to_re "2") (str.to_re "333"))) (re.++ (re.* (re.+ (str.to_re "444"))) (re.++ (re.+ (re.union (str.to_re "555") (str.to_re "6"))) (re.++ (re.+ (re.* (str.to_re "7"))) (re.++ (re.+ (re.union (str.to_re "8") (str.to_re "99"))) (re.++ (re.union (re.union (str.to_re "aa") (str.to_re "bbb")) (re.union (str.to_re "cc") (str.to_re "d"))) (re.++ (re.* (re.union (str.to_re "eee") (str.to_re "ff"))) (re.++ (re.union (re.union (str.to_re "ggg") (str.to_re "h")) (re.union (str.to_re "iii") (str.to_re "jjj"))) (re.union (re.* (str.to_re "kk")) (re.* (str.to_re "l"))))))))))))))
(assert (<= 476 (str.len var0)))
(check-sat)